c Output_time 26.03.2020 18:13:25_+0100 1585242805058024592
c ** Program information **
c program_name                          "QBRG_debug"
c version                               "0.3.20"
c date                                  "25.3.2020"
c gid_id                                "673970833836058123f633335630c185360d632e"
c author                                "Oliver Kullmann"
c url                                   "https://github.com/OKullmann/oklibrary/blob/master/Satisfiability/Transformers/Generators/Random/QBRG.cpp"
c ** Machine information **
c machine_name                          "chyna-Lenovo-G50-70"
c bogomips                              3791.08
c ** Compilation information **
c compiler_version                      "g++ 7.5.0"
c compilation_date                      "Mar_26_2020 11:16:30"
c compilation_options                   "--std=c++17 -pedantic -fmax-errors=5 -Wall -Wextra -g -D_GLIBCXX_DEBUG"
c NDEBUG                                0
c OPTIMIZE                              0
c ** Parameters **
c command-line                          "./QBRG_debug" "e40 a40 40" "482*1,1|2-2,1|3-3,1" "" "1,t" ""
c output                                "QuBlRaGe_120_482_1585242805020586750.qdimacs"
c options                               "filtered,renamed"
c num_quantifier_blocks                 3
c  quantifier_blocks                    1:e1-40 2:a41-80 3:e81-120
c num_clause-blocks                     1
c  clause-blocks                        482 * {1-40,1,1/2} | {41-80,1,1/2} | {81-120,1,1/2}
c num_e-seeds                           30+2=32
c  e-seeds                              1 0 1 0 4 120 2 40 1 40 0 40 1 482 3 1 1 1 1 2 2 2 1 1 2 3 3 1 1 2 1 1585242805020585990
p cnf 120 482
e 1 2 3 4 5 6 7 8 9 10 11 12 13 14 15 16 17 18 19 20 21 22 23 24 25 26 27 28 29 30 31 32 33 34 35 36 37 38 39 40 0
a 41 42 43 44 45 46 47 48 49 50 51 52 53 54 55 56 57 58 59 60 61 62 63 64 65 66 67 68 69 70 71 72 73 74 75 76 77 78 79 80 0
e 81 82 83 84 85 86 87 88 89 90 91 92 93 94 95 96 97 98 99 100 101 102 103 104 105 106 107 108 109 110 111 112 113 114 115 116 117 118 119 120 0
-24 -43 -81 0
1 -47 -81 0
18 51 -81 0
13 64 -81 0
2 65 -81 0
5 -68 -81 0
18 69 -81 0
-32 71 -81 0
39 -80 -81 0
-32 -43 81 0
-29 46 81 0
23 -50 81 0
1 -65 81 0
-29 -69 81 0
-18 75 81 0
-22 56 -82 0
-6 59 -82 0
-3 63 -82 0
-3 -67 -82 0
-17 -79 -82 0
-10 -47 82 0
-34 47 82 0
-7 -50 82 0
-32 -59 82 0
-6 44 -83 0
-12 45 -83 0
36 -52 -83 0
-30 61 -83 0
-13 62 -83 0
8 64 -83 0
29 70 -83 0
16 -76 -83 0
31 -78 -83 0
3 -80 -83 0
-17 -48 83 0
38 -52 83 0
-9 53 83 0
-17 61 83 0
-22 -70 83 0
-36 -71 83 0
29 77 83 0
-9 -80 83 0
-37 -63 -84 0
7 -65 -84 0
1 69 -84 0
1 -72 -84 0
36 -74 -84 0
-26 -78 -84 0
-16 -44 84 0
12 45 84 0
30 52 84 0
-19 57 84 0
-18 -63 84 0
-30 66 84 0
-12 74 84 0
-27 -75 84 0
-4 -76 84 0
15 -79 84 0
20 -42 -85 0
-37 -46 -85 0
20 -50 -85 0
35 -70 -85 0
28 -77 -85 0
-5 -41 85 0
6 49 85 0
-26 -59 85 0
14 62 85 0
37 71 85 0
15 -41 -86 0
-8 41 -86 0
-27 46 -86 0
36 53 -86 0
-19 56 -86 0
17 -63 -86 0
2 -71 -86 0
-23 -78 -86 0
-21 78 -86 0
-1 -46 86 0
24 50 86 0
-33 54 86 0
32 -55 86 0
2 62 86 0
-38 79 86 0
17 41 -87 0
4 -53 -87 0
-16 60 -87 0
-19 66 -87 0
-32 -68 -87 0
2 72 -87 0
20 -47 87 0
-24 -56 87 0
-36 59 87 0
-2 -77 87 0
5 41 -88 0
5 -43 -88 0
-37 -47 -88 0
-32 48 -88 0
37 -50 -88 0
16 53 -88 0
37 54 -88 0
31 -55 -88 0
24 63 -88 0
-12 -71 -88 0
39 -50 88 0
3 53 88 0
-2 -57 88 0
19 69 88 0
-21 -74 88 0
-22 -79 88 0
34 79 88 0
25 -41 -89 0
-11 -42 -89 0
34 -48 -89 0
3 -49 -89 0
-14 51 -89 0
-38 -56 -89 0
16 58 -89 0
31 -64 -89 0
-4 67 -89 0
-10 -69 -89 0
26 -76 -89 0
22 -79 -89 0
9 -46 89 0
-40 46 89 0
18 49 89 0
-5 65 89 0
-12 70 89 0
2 -72 89 0
-25 43 -90 0
22 48 -90 0
-23 -60 -90 0
-36 63 -90 0
-1 60 90 0
17 -72 90 0
-22 -75 90 0
-2 54 -91 0
6 64 -91 0
12 69 -91 0
3 73 -91 0
10 74 -91 0
27 80 -91 0
-23 -70 91 0
7 74 91 0
31 -79 91 0
39 79 91 0
4 -52 -92 0
10 55 -92 0
17 -71 -92 0
-28 -76 -92 0
27 78 -92 0
30 78 -92 0
17 61 92 0
-27 62 92 0
-3 67 92 0
8 -72 92 0
21 76 92 0
-32 -46 -93 0
-23 -48 -93 0
-23 55 -93 0
-9 -56 -93 0
34 65 -93 0
-20 70 -93 0
-26 70 -93 0
-13 71 -93 0
-24 46 93 0
-8 50 93 0
-3 -66 93 0
21 73 93 0
10 76 93 0
-19 -77 93 0
-35 -79 93 0
14 41 -94 0
18 50 -94 0
-24 53 -94 0
19 54 -94 0
-4 -60 -94 0
-39 65 -94 0
12 41 94 0
35 -46 94 0
15 -47 94 0
-12 -49 94 0
-20 -53 94 0
21 -65 94 0
-35 -70 94 0
20 74 94 0
19 75 94 0
-17 77 94 0
21 -58 -95 0
15 58 -95 0
8 -60 -95 0
20 -60 -95 0
33 71 -95 0
15 80 -95 0
-31 -54 95 0
5 -63 95 0
26 -64 95 0
11 -71 95 0
-6 42 -96 0
28 -43 -96 0
32 -75 -96 0
37 80 -96 0
-25 -41 96 0
-5 52 96 0
-37 -57 96 0
-23 61 96 0
-11 -67 96 0
-4 -73 96 0
35 -74 96 0
31 75 96 0
-6 -77 96 0
-17 41 -97 0
2 -43 -97 0
-4 -54 -97 0
33 55 -97 0
-35 -63 -97 0
-1 72 -97 0
19 -79 -97 0
-4 -54 97 0
-16 62 97 0
28 48 -98 0
-26 -66 -98 0
-1 -73 -98 0
36 56 98 0
-31 58 98 0
-25 -60 98 0
-33 -60 98 0
34 -66 98 0
8 80 98 0
-5 -41 -99 0
-3 42 -99 0
2 51 -99 0
-5 54 -99 0
-13 72 -99 0
37 51 99 0
11 52 99 0
-19 74 99 0
-13 -42 -100 0
19 44 -100 0
39 -47 -100 0
-21 55 -100 0
34 57 -100 0
-8 -60 -100 0
17 62 -100 0
36 62 -100 0
-29 64 -100 0
31 67 -100 0
-19 -44 100 0
6 -55 100 0
3 -58 100 0
5 71 100 0
16 75 100 0
-22 80 100 0
26 -41 -101 0
18 42 -101 0
-5 60 -101 0
-12 69 -101 0
-34 70 -101 0
-15 -77 -101 0
-2 -41 101 0
20 -44 101 0
18 -52 101 0
34 53 101 0
20 -55 101 0
-18 -57 101 0
-11 67 101 0
-7 -71 101 0
-5 -78 101 0
20 -78 101 0
-17 55 -102 0
8 64 -102 0
-34 -69 -102 0
14 77 -102 0
31 42 102 0
-6 -53 102 0
28 -53 102 0
27 55 102 0
-3 -65 102 0
3 70 102 0
18 71 102 0
3 41 -103 0
16 43 -103 0
39 54 -103 0
36 57 -103 0
23 -68 -103 0
34 68 -103 0
-33 70 -103 0
8 78 -103 0
1 -80 -103 0
-2 -80 -103 0
-10 42 103 0
-17 -46 103 0
25 48 103 0
-25 -70 103 0
19 -79 103 0
-14 -48 -104 0
3 50 -104 0
-4 56 -104 0
10 -58 -104 0
-12 61 -104 0
20 68 -104 0
-10 -72 -104 0
-36 77 -104 0
28 -78 -104 0
40 -80 -104 0
31 -43 104 0
-8 67 104 0
30 69 104 0
40 79 104 0
23 61 -105 0
40 -73 -105 0
-3 -41 105 0
19 -49 105 0
-28 -67 105 0
-25 67 105 0
-40 73 105 0
-28 -46 -106 0
-24 -47 -106 0
-26 -53 -106 0
17 57 -106 0
-26 62 -106 0
-8 -75 -106 0
-30 75 -106 0
-34 -79 -106 0
-13 41 106 0
-1 -61 106 0
15 -65 106 0
31 68 106 0
-27 -71 106 0
21 75 106 0
39 53 -107 0
19 -74 -107 0
36 -41 107 0
31 51 107 0
22 53 107 0
32 -46 -108 0
-38 -49 -108 0
-39 52 -108 0
19 -58 -108 0
-7 -63 -108 0
-12 -66 -108 0
5 77 -108 0
33 -45 108 0
-6 -46 108 0
39 -55 108 0
37 57 108 0
26 63 108 0
40 -80 108 0
25 -43 -109 0
-24 56 -109 0
7 65 -109 0
18 69 -109 0
32 80 -109 0
-9 45 109 0
31 47 109 0
8 -56 109 0
25 44 -110 0
24 -47 -110 0
-3 -51 -110 0
-12 -51 -110 0
-18 55 -110 0
35 -56 -110 0
31 58 -110 0
15 -41 110 0
36 -41 110 0
3 -50 110 0
-27 -50 110 0
15 44 -111 0
-6 -52 -111 0
7 62 -111 0
30 62 -111 0
27 -64 -111 0
15 74 -111 0
-31 55 111 0
13 67 111 0
-27 67 111 0
35 -68 111 0
21 78 111 0
-20 -80 111 0
-22 -42 -112 0
-36 -46 -112 0
19 49 -112 0
4 65 -112 0
-30 -71 -112 0
-7 78 -112 0
5 -45 112 0
-11 -68 112 0
21 69 112 0
-11 78 112 0
32 44 -113 0
-26 -46 -113 0
4 -58 -113 0
12 69 -113 0
-24 -70 -113 0
-24 -76 -113 0
-5 -77 -113 0
22 80 -113 0
32 -48 113 0
-32 -65 113 0
-1 -70 113 0
-36 78 113 0
-38 -55 -114 0
-16 68 -114 0
24 69 -114 0
30 50 114 0
-20 -60 114 0
37 62 114 0
38 -78 114 0
-15 44 -115 0
39 50 -115 0
-14 -53 -115 0
-21 53 -115 0
-13 54 -115 0
38 -60 -115 0
22 68 -115 0
21 -73 -115 0
-27 -44 115 0
24 48 115 0
-29 -54 115 0
-12 -55 115 0
15 -61 115 0
-25 -63 115 0
-31 -63 115 0
6 -75 115 0
-28 76 115 0
-7 57 -116 0
2 68 -116 0
23 68 -116 0
29 70 -116 0
12 -71 -116 0
27 -74 -116 0
-27 -41 116 0
-10 -48 116 0
24 -56 116 0
-37 -57 116 0
36 59 116 0
8 60 116 0
-30 62 116 0
-16 -68 116 0
-38 -44 -117 0
-13 -53 -117 0
-34 -62 -117 0
-29 76 -117 0
-33 47 117 0
19 54 117 0
31 63 117 0
23 -70 117 0
-1 -71 117 0
18 73 117 0
-32 -74 117 0
30 43 -118 0
31 -51 -118 0
11 -54 -118 0
5 60 -118 0
-24 -70 -118 0
-12 76 -118 0
-35 -77 -118 0
19 -42 118 0
-40 -49 118 0
28 70 118 0
-11 41 -119 0
14 -46 -119 0
33 64 -119 0
-28 65 -119 0
-31 -67 -119 0
20 -68 -119 0
-21 73 -119 0
-40 -74 -119 0
40 -77 -119 0
-8 43 119 0
21 -58 119 0
9 61 119 0
4 62 119 0
-25 -71 119 0
-33 43 -120 0
-10 46 -120 0
-31 -48 -120 0
-25 -71 -120 0
-4 78 -120 0
4 44 120 0
-25 -58 120 0
31 -70 120 0
24 76 120 0
